13
23
14
31
36
25
10
10
3
7
26
17
29
20
31
32
39
21
51
16
44
28
47
6
49
40
41
32
24
50
11
8
38
15
7
20
16
17
31
21
28
51
22
4
33
43
48
33
9
10
23
42
26
41
3
18
34
38
25
29
17
42
50
44
18
4
26
43
16
12
34
35
27
2
43
30
34
5
40
45
15
8
21
35
46
49
37
22
6
22
33
30
23
28
1
1
45
36
9
36
2
24
37
27
7
13
6
19
11
48
47
12
14
3
35
29
5
27
46
24
25
19
14
39
39
